instances/knapsack/discrete_knapsack_uncertainty/knapsack_50_10.lp
\ Model knapsack_50_10
\ LP format - for model browsing. Use MPS format to capture full model detail.
\ Signature: 0xe2d4f45d0ac270ee
Minimize
  - 98 x[0] - 22 x[1] - 60 x[2] - 48 x[3] - 89 x[4] - 53 x[5] - 29 x[6]
   - 87 x[7] - 66 x[8] - 66 x[9] - 87 x[10] - 71 x[11] - 95 x[12]
   - 34 x[13] - 19 x[14] - 84 x[15] - 62 x[16] - 14 x[17] - 66 x[18]
   - 37 x[19] - 69 x[20] - 19 x[21] - 92 x[22] - 16 x[23] - 37 x[24]
   - 14 x[25] - 20 x[26] - 51 x[27] - 38 x[28] - 12 x[29] - 29 x[30]
   - 96 x[31] - 68 x[32] - 39 x[33] - 39 x[34] - 53 x[35] - 45 x[36]
   - 11 x[37] - 42 x[38] - 35 x[39] - 8 x[40] - 37 x[41] - 49 x[42]
   - 35 x[43] - 46 x[44] - 7 x[45] - 96 x[46] - 56 x[47] - 28 x[48]
   - 53 x[49]
Subject To
 primal_upper: 37 x[0] + 58 x[1] + 96 x[2] + 17 x[3] + 46 x[4] + 23 x[5]
   + 95 x[6] + x[7] + 11 x[8] + 96 x[9] + 73 x[10] + 69 x[11] + 46 x[12]
   + 62 x[13] + 22 x[14] + 70 x[15] + 23 x[16] + 82 x[17] + 31 x[18]
   + 40 x[19] + 27 x[20] + 21 x[21] + 70 x[22] + 80 x[23] + 66 x[24]
   + 78 x[25] + 16 x[26] + 57 x[27] + 15 x[28] + 33 x[29] + 23 x[30]
   + 73 x[31] + 33 x[32] + 83 x[33] + 82 x[34] + 3 x[35] + 78 x[36]
   + 18 x[37] + 86 x[38] + 60 x[39] + 29 x[40] + 91 x[41] + 64 x[42]
   + 19 x[43] + 89 x[44] + 36 x[45] + 71 x[46] + 7 x[47] + 41 x[48]
   + 62 x[49] + 3.7 r[0] + 5.8 r[1] + 9.6 r[2] + 1.7 r[3] + 4.6 r[4]
   + 2.3 r[5] + 9.5 r[6] + 0.1 r[7] + 1.1 r[8] + 9.6 r[9] + 7.3 r[10]
   + 6.9 r[11] + 4.6 r[12] + 6.2 r[13] + 2.2 r[14] + 7 r[15] + 2.3 r[16]
   + 8.2 r[17] + 3.1 r[18] + 4 r[19] + 2.7 r[20] + 2.1 r[21] + 7 r[22]
   + 8 r[23] + 6.6 r[24] + 7.8 r[25] + 1.6 r[26] + 5.7 r[27] + 1.5 r[28]
   + 3.3 r[29] + 2.3 r[30] + 7.3 r[31] + 3.3 r[32] + 8.3 r[33] + 8.2 r[34]
   + 0.3 r[35] + 7.8 r[36] + 1.8 r[37] + 8.6 r[38] + 6 r[39] + 2.9 r[40]
   + 9.1 r[41] + 6.4 r[42] + 1.9 r[43] + 8.9 r[44] + 3.6 r[45] + 7.1 r[46]
   + 0.7 r[47] + 4.1 r[48] + 6.2 r[49] <= 238
 primal_lower: 3.266479809971028 x[0] + 2.753261895363312 x[1]
   + 1.483197478502374 x[2] + 1.28831985329957 x[3]
   + 3.365895106369416 x[4] + 1.907770404876632 x[5]
   + 1.079451703378177 x[6] + 4.19841384352416 x[7]
   + 4.296287685534336 x[8] + 1.851798564734536 x[9]
   + 3.561442443702103 x[10] + 2.932601980262997 x[11]
   + 2.168114310400445 x[12] + 2.187419420462803 x[13]
   + 3.704872049277803 x[14] + 4.34525529815547 x[15]
   + 1.317207056879561 x[16] + 3.592685177384121 x[17]
   + 4.050810607660938 x[18] + 2.083711913976792 x[19]
   + 1.568832926521591 x[20] + 2.557374057755339 x[21]
   + 3.529660937410563 x[22] + 3.530054032603585 x[23]
   + 2.882320983743221 x[24] + 3.550922670316597 x[25]
   + 0.4794020464011436 x[26] + 1.075216436337487 x[27]
   + 1.735830593534898 x[28] + 0.3233507890343295 x[29]
   + 0.1603129217600844 x[30] + 1.025250070125284 x[31]
   + 1.507947030639621 x[32] + 4.443064198364896 x[33]
   + 1.532141810719502 x[34] + 0.2080287405285612 x[35]
   + 0.6340001484219504 x[36] + 3.48582694645911 x[37]
   + 3.90983463794837 x[38] + 0.1201782471169346 x[39]
   + 0.4771414695851556 x[40] + 0.0442183078190677 x[41]
   + 4.045223245843572 x[42] + 2.950127586237318 x[43]
   + 0.00180971030001853 x[44] + 2.007203268642632 x[45]
   + 3.524398963814072 x[46] + 2.06779015948945 x[47]
   + 1.542372694313501 x[48] + 0.4614314002475777 x[49] + 18 u[0] + 7 u[1]
   + 57 u[2] + 22 u[3] + 79 u[4] + 32 u[5] + 72 u[6] + 18 u[7] + 8 u[8]
   + 85 u[9] + 6 u[10] + 86 u[11] + 31 u[12] + 75 u[13] + 91 u[14]
   + 59 u[15] + 72 u[16] + 91 u[17] + 20 u[18] + 17 u[19] + 56 u[20]
   + 70 u[21] + 63 u[22] + 41 u[23] + 15 u[24] + 47 u[25] + 29 u[26]
   + 6 u[27] + 96 u[28] + 30 u[29] + 44 u[30] + 30 u[31] + 82 u[32]
   + 84 u[33] + 35 u[34] + 72 u[35] + 83 u[36] + 71 u[37] + 59 u[38]
   + 17 u[39] + 10 u[40] + 48 u[41] + 37 u[42] + 64 u[43] + 66 u[44]
   + 81 u[45] + 12 u[46] + 84 u[47] + 66 u[48] + 43 u[49] <= 47203
 mccormick1[0]: - u[0] + r[0] <= 0
 mccormick1[1]: - u[1] + r[1] <= 0
 mccormick1[2]: - u[2] + r[2] <= 0
 mccormick1[3]: - u[3] + r[3] <= 0
 mccormick1[4]: - u[4] + r[4] <= 0
 mccormick1[5]: - u[5] + r[5] <= 0
 mccormick1[6]: - u[6] + r[6] <= 0
 mccormick1[7]: - u[7] + r[7] <= 0
 mccormick1[8]: - u[8] + r[8] <= 0
 mccormick1[9]: - u[9] + r[9] <= 0
 mccormick1[10]: - u[10] + r[10] <= 0
 mccormick1[11]: - u[11] + r[11] <= 0
 mccormick1[12]: - u[12] + r[12] <= 0
 mccormick1[13]: - u[13] + r[13] <= 0
 mccormick1[14]: - u[14] + r[14] <= 0
 mccormick1[15]: - u[15] + r[15] <= 0
 mccormick1[16]: - u[16] + r[16] <= 0
 mccormick1[17]: - u[17] + r[17] <= 0
 mccormick1[18]: - u[18] + r[18] <= 0
 mccormick1[19]: - u[19] + r[19] <= 0
 mccormick1[20]: - u[20] + r[20] <= 0
 mccormick1[21]: - u[21] + r[21] <= 0
 mccormick1[22]: - u[22] + r[22] <= 0
 mccormick1[23]: - u[23] + r[23] <= 0
 mccormick1[24]: - u[24] + r[24] <= 0
 mccormick1[25]: - u[25] + r[25] <= 0
 mccormick1[26]: - u[26] + r[26] <= 0
 mccormick1[27]: - u[27] + r[27] <= 0
 mccormick1[28]: - u[28] + r[28] <= 0
 mccormick1[29]: - u[29] + r[29] <= 0
 mccormick1[30]: - u[30] + r[30] <= 0
 mccormick1[31]: - u[31] + r[31] <= 0
 mccormick1[32]: - u[32] + r[32] <= 0
 mccormick1[33]: - u[33] + r[33] <= 0
 mccormick1[34]: - u[34] + r[34] <= 0
 mccormick1[35]: - u[35] + r[35] <= 0
 mccormick1[36]: - u[36] + r[36] <= 0
 mccormick1[37]: - u[37] + r[37] <= 0
 mccormick1[38]: - u[38] + r[38] <= 0
 mccormick1[39]: - u[39] + r[39] <= 0
 mccormick1[40]: - u[40] + r[40] <= 0
 mccormick1[41]: - u[41] + r[41] <= 0
 mccormick1[42]: - u[42] + r[42] <= 0
 mccormick1[43]: - u[43] + r[43] <= 0
 mccormick1[44]: - u[44] + r[44] <= 0
 mccormick1[45]: - u[45] + r[45] <= 0
 mccormick1[46]: - u[46] + r[46] <= 0
 mccormick1[47]: - u[47] + r[47] <= 0
 mccormick1[48]: - u[48] + r[48] <= 0
 mccormick1[49]: - u[49] + r[49] <= 0
 mccormick2[0]: - x[0] + r[0] <= 0
 mccormick2[1]: - x[1] + r[1] <= 0
 mccormick2[2]: - x[2] + r[2] <= 0
 mccormick2[3]: - x[3] + r[3] <= 0
 mccormick2[4]: - x[4] + r[4] <= 0
 mccormick2[5]: - x[5] + r[5] <= 0
 mccormick2[6]: - x[6] + r[6] <= 0
 mccormick2[7]: - x[7] + r[7] <= 0
 mccormick2[8]: - x[8] + r[8] <= 0
 mccormick2[9]: - x[9] + r[9] <= 0
 mccormick2[10]: - x[10] + r[10] <= 0
 mccormick2[11]: - x[11] + r[11] <= 0
 mccormick2[12]: - x[12] + r[12] <= 0
 mccormick2[13]: - x[13] + r[13] <= 0
 mccormick2[14]: - x[14] + r[14] <= 0
 mccormick2[15]: - x[15] + r[15] <= 0
 mccormick2[16]: - x[16] + r[16] <= 0
 mccormick2[17]: - x[17] + r[17] <= 0
 mccormick2[18]: - x[18] + r[18] <= 0
 mccormick2[19]: - x[19] + r[19] <= 0
 mccormick2[20]: - x[20] + r[20] <= 0
 mccormick2[21]: - x[21] + r[21] <= 0
 mccormick2[22]: - x[22] + r[22] <= 0
 mccormick2[23]: - x[23] + r[23] <= 0
 mccormick2[24]: - x[24] + r[24] <= 0
 mccormick2[25]: - x[25] + r[25] <= 0
 mccormick2[26]: - x[26] + r[26] <= 0
 mccormick2[27]: - x[27] + r[27] <= 0
 mccormick2[28]: - x[28] + r[28] <= 0
 mccormick2[29]: - x[29] + r[29] <= 0
 mccormick2[30]: - x[30] + r[30] <= 0
 mccormick2[31]: - x[31] + r[31] <= 0
 mccormick2[32]: - x[32] + r[32] <= 0
 mccormick2[33]: - x[33] + r[33] <= 0
 mccormick2[34]: - x[34] + r[34] <= 0
 mccormick2[35]: - x[35] + r[35] <= 0
 mccormick2[36]: - x[36] + r[36] <= 0
 mccormick2[37]: - x[37] + r[37] <= 0
 mccormick2[38]: - x[38] + r[38] <= 0
 mccormick2[39]: - x[39] + r[39] <= 0
 mccormick2[40]: - x[40] + r[40] <= 0
 mccormick2[41]: - x[41] + r[41] <= 0
 mccormick2[42]: - x[42] + r[42] <= 0
 mccormick2[43]: - x[43] + r[43] <= 0
 mccormick2[44]: - x[44] + r[44] <= 0
 mccormick2[45]: - x[45] + r[45] <= 0
 mccormick2[46]: - x[46] + r[46] <= 0
 mccormick2[47]: - x[47] + r[47] <= 0
 mccormick2[48]: - x[48] + r[48] <= 0
 mccormick2[49]: - x[49] + r[49] <= 0
 mccormick3[0]: x[0] + u[0] - r[0] <= 1
 mccormick3[1]: x[1] + u[1] - r[1] <= 1
 mccormick3[2]: x[2] + u[2] - r[2] <= 1
 mccormick3[3]: x[3] + u[3] - r[3] <= 1
 mccormick3[4]: x[4] + u[4] - r[4] <= 1
 mccormick3[5]: x[5] + u[5] - r[5] <= 1
 mccormick3[6]: x[6] + u[6] - r[6] <= 1
 mccormick3[7]: x[7] + u[7] - r[7] <= 1
 mccormick3[8]: x[8] + u[8] - r[8] <= 1
 mccormick3[9]: x[9] + u[9] - r[9] <= 1
 mccormick3[10]: x[10] + u[10] - r[10] <= 1
 mccormick3[11]: x[11] + u[11] - r[11] <= 1
 mccormick3[12]: x[12] + u[12] - r[12] <= 1
 mccormick3[13]: x[13] + u[13] - r[13] <= 1
 mccormick3[14]: x[14] + u[14] - r[14] <= 1
 mccormick3[15]: x[15] + u[15] - r[15] <= 1
 mccormick3[16]: x[16] + u[16] - r[16] <= 1
 mccormick3[17]: x[17] + u[17] - r[17] <= 1
 mccormick3[18]: x[18] + u[18] - r[18] <= 1
 mccormick3[19]: x[19] + u[19] - r[19] <= 1
 mccormick3[20]: x[20] + u[20] - r[20] <= 1
 mccormick3[21]: x[21] + u[21] - r[21] <= 1
 mccormick3[22]: x[22] + u[22] - r[22] <= 1
 mccormick3[23]: x[23] + u[23] - r[23] <= 1
 mccormick3[24]: x[24] + u[24] - r[24] <= 1
 mccormick3[25]: x[25] + u[25] - r[25] <= 1
 mccormick3[26]: x[26] + u[26] - r[26] <= 1
 mccormick3[27]: x[27] + u[27] - r[27] <= 1
 mccormick3[28]: x[28] + u[28] - r[28] <= 1
 mccormick3[29]: x[29] + u[29] - r[29] <= 1
 mccormick3[30]: x[30] + u[30] - r[30] <= 1
 mccormick3[31]: x[31] + u[31] - r[31] <= 1
 mccormick3[32]: x[32] + u[32] - r[32] <= 1
 mccormick3[33]: x[33] + u[33] - r[33] <= 1
 mccormick3[34]: x[34] + u[34] - r[34] <= 1
 mccormick3[35]: x[35] + u[35] - r[35] <= 1
 mccormick3[36]: x[36] + u[36] - r[36] <= 1
 mccormick3[37]: x[37] + u[37] - r[37] <= 1
 mccormick3[38]: x[38] + u[38] - r[38] <= 1
 mccormick3[39]: x[39] + u[39] - r[39] <= 1
 mccormick3[40]: x[40] + u[40] - r[40] <= 1
 mccormick3[41]: x[41] + u[41] - r[41] <= 1
 mccormick3[42]: x[42] + u[42] - r[42] <= 1
 mccormick3[43]: x[43] + u[43] - r[43] <= 1
 mccormick3[44]: x[44] + u[44] - r[44] <= 1
 mccormick3[45]: x[45] + u[45] - r[45] <= 1
 mccormick3[46]: x[46] + u[46] - r[46] <= 1
 mccormick3[47]: x[47] + u[47] - r[47] <= 1
 mccormick3[48]: x[48] + u[48] - r[48] <= 1
 mccormick3[49]: x[49] + u[49] - r[49] <= 1
Bounds
Binaries
 x[0] x[1] x[2] x[3] x[4] x[5] x[6] x[7] x[8] x[9] x[10] x[11] x[12] x[13]
 x[14] x[15] x[16] x[17] x[18] x[19] x[20] x[21] x[22] x[23] x[24] x[25]
 x[26] x[27] x[28] x[29] x[30] x[31] x[32] x[33] x[34] x[35] x[36] x[37]
 x[38] x[39] x[40] x[41] x[42] x[43] x[44] x[45] x[46] x[47] x[48] x[49]
 u[0] u[1] u[2] u[3] u[4] u[5] u[6] u[7] u[8] u[9] u[10] u[11] u[12] u[13]
 u[14] u[15] u[16] u[17] u[18] u[19] u[20] u[21] u[22] u[23] u[24] u[25]
 u[26] u[27] u[28] u[29] u[30] u[31] u[32] u[33] u[34] u[35] u[36] u[37]
 u[38] u[39] u[40] u[41] u[42] u[43] u[44] u[45] u[46] u[47] u[48] u[49]
 r[0] r[1] r[2] r[3] r[4] r[5] r[6] r[7] r[8] r[9] r[10] r[11] r[12] r[13]
 r[14] r[15] r[16] r[17] r[18] r[19] r[20] r[21] r[22] r[23] r[24] r[25]
 r[26] r[27] r[28] r[29] r[30] r[31] r[32] r[33] r[34] r[35] r[36] r[37]
 r[38] r[39] r[40] r[41] r[42] r[43] r[44] r[45] r[46] r[47] r[48] r[49]
End
