instances/knapsack/discrete_knapsack_uncertainty/knapsack_50_10.mps
* Signature: 0xe2d4f45d0ac270ee
NAME knapsack_50_10
ROWS
 N  OBJ
 L  primal_upper
 L  primal_lower
 L  mccormick1[0]
 L  mccormick1[1]
 L  mccormick1[2]
 L  mccormick1[3]
 L  mccormick1[4]
 L  mccormick1[5]
 L  mccormick1[6]
 L  mccormick1[7]
 L  mccormick1[8]
 L  mccormick1[9]
 L  mccormick1[10]
 L  mccormick1[11]
 L  mccormick1[12]
 L  mccormick1[13]
 L  mccormick1[14]
 L  mccormick1[15]
 L  mccormick1[16]
 L  mccormick1[17]
 L  mccormick1[18]
 L  mccormick1[19]
 L  mccormick1[20]
 L  mccormick1[21]
 L  mccormick1[22]
 L  mccormick1[23]
 L  mccormick1[24]
 L  mccormick1[25]
 L  mccormick1[26]
 L  mccormick1[27]
 L  mccormick1[28]
 L  mccormick1[29]
 L  mccormick1[30]
 L  mccormick1[31]
 L  mccormick1[32]
 L  mccormick1[33]
 L  mccormick1[34]
 L  mccormick1[35]
 L  mccormick1[36]
 L  mccormick1[37]
 L  mccormick1[38]
 L  mccormick1[39]
 L  mccormick1[40]
 L  mccormick1[41]
 L  mccormick1[42]
 L  mccormick1[43]
 L  mccormick1[44]
 L  mccormick1[45]
 L  mccormick1[46]
 L  mccormick1[47]
 L  mccormick1[48]
 L  mccormick1[49]
 L  mccormick2[0]
 L  mccormick2[1]
 L  mccormick2[2]
 L  mccormick2[3]
 L  mccormick2[4]
 L  mccormick2[5]
 L  mccormick2[6]
 L  mccormick2[7]
 L  mccormick2[8]
 L  mccormick2[9]
 L  mccormick2[10]
 L  mccormick2[11]
 L  mccormick2[12]
 L  mccormick2[13]
 L  mccormick2[14]
 L  mccormick2[15]
 L  mccormick2[16]
 L  mccormick2[17]
 L  mccormick2[18]
 L  mccormick2[19]
 L  mccormick2[20]
 L  mccormick2[21]
 L  mccormick2[22]
 L  mccormick2[23]
 L  mccormick2[24]
 L  mccormick2[25]
 L  mccormick2[26]
 L  mccormick2[27]
 L  mccormick2[28]
 L  mccormick2[29]
 L  mccormick2[30]
 L  mccormick2[31]
 L  mccormick2[32]
 L  mccormick2[33]
 L  mccormick2[34]
 L  mccormick2[35]
 L  mccormick2[36]
 L  mccormick2[37]
 L  mccormick2[38]
 L  mccormick2[39]
 L  mccormick2[40]
 L  mccormick2[41]
 L  mccormick2[42]
 L  mccormick2[43]
 L  mccormick2[44]
 L  mccormick2[45]
 L  mccormick2[46]
 L  mccormick2[47]
 L  mccormick2[48]
 L  mccormick2[49]
 L  mccormick3[0]
 L  mccormick3[1]
 L  mccormick3[2]
 L  mccormick3[3]
 L  mccormick3[4]
 L  mccormick3[5]
 L  mccormick3[6]
 L  mccormick3[7]
 L  mccormick3[8]
 L  mccormick3[9]
 L  mccormick3[10]
 L  mccormick3[11]
 L  mccormick3[12]
 L  mccormick3[13]
 L  mccormick3[14]
 L  mccormick3[15]
 L  mccormick3[16]
 L  mccormick3[17]
 L  mccormick3[18]
 L  mccormick3[19]
 L  mccormick3[20]
 L  mccormick3[21]
 L  mccormick3[22]
 L  mccormick3[23]
 L  mccormick3[24]
 L  mccormick3[25]
 L  mccormick3[26]
 L  mccormick3[27]
 L  mccormick3[28]
 L  mccormick3[29]
 L  mccormick3[30]
 L  mccormick3[31]
 L  mccormick3[32]
 L  mccormick3[33]
 L  mccormick3[34]
 L  mccormick3[35]
 L  mccormick3[36]
 L  mccormick3[37]
 L  mccormick3[38]
 L  mccormick3[39]
 L  mccormick3[40]
 L  mccormick3[41]
 L  mccormick3[42]
 L  mccormick3[43]
 L  mccormick3[44]
 L  mccormick3[45]
 L  mccormick3[46]
 L  mccormick3[47]
 L  mccormick3[48]
 L  mccormick3[49]
COLUMNS
    MARKER    'MARKER'                 'INTORG'
    x[0]      OBJ       -98
    x[0]      primal_upper  37
    x[0]      primal_lower  3.2664798099710279e+00
    x[0]      mccormick2[0]  -1
    x[0]      mccormick3[0]  1
    x[1]      OBJ       -22
    x[1]      primal_upper  58
    x[1]      primal_lower  2.7532618953633121e+00
    x[1]      mccormick2[1]  -1
    x[1]      mccormick3[1]  1
    x[2]      OBJ       -60
    x[2]      primal_upper  96
    x[2]      primal_lower  1.4831974785023740e+00
    x[2]      mccormick2[2]  -1
    x[2]      mccormick3[2]  1
    x[3]      OBJ       -48
    x[3]      primal_upper  17
    x[3]      primal_lower  1.2883198532995699e+00
    x[3]      mccormick2[3]  -1
    x[3]      mccormick3[3]  1
    x[4]      OBJ       -89
    x[4]      primal_upper  46
    x[4]      primal_lower  3.3658951063694156e+00
    x[4]      mccormick2[4]  -1
    x[4]      mccormick3[4]  1
    x[5]      OBJ       -53
    x[5]      primal_upper  23
    x[5]      primal_lower  1.9077704048766322e+00
    x[5]      mccormick2[5]  -1
    x[5]      mccormick3[5]  1
    x[6]      OBJ       -29
    x[6]      primal_upper  95
    x[6]      primal_lower  1.0794517033781768e+00
    x[6]      mccormick2[6]  -1
    x[6]      mccormick3[6]  1
    x[7]      OBJ       -87
    x[7]      primal_upper  1
    x[7]      primal_lower  4.19841384352416
    x[7]      mccormick2[7]  -1
    x[7]      mccormick3[7]  1
    x[8]      OBJ       -66
    x[8]      primal_upper  11
    x[8]      primal_lower  4.2962876855343364e+00
    x[8]      mccormick2[8]  -1
    x[8]      mccormick3[8]  1
    x[9]      OBJ       -66
    x[9]      primal_upper  96
    x[9]      primal_lower  1.8517985647345356e+00
    x[9]      mccormick2[9]  -1
    x[9]      mccormick3[9]  1
    x[10]     OBJ       -87
    x[10]     primal_upper  73
    x[10]     primal_lower  3.5614424437021026e+00
    x[10]     mccormick2[10]  -1
    x[10]     mccormick3[10]  1
    x[11]     OBJ       -71
    x[11]     primal_upper  69
    x[11]     primal_lower  2.9326019802629970e+00
    x[11]     mccormick2[11]  -1
    x[11]     mccormick3[11]  1
    x[12]     OBJ       -95
    x[12]     primal_upper  46
    x[12]     primal_lower  2.1681143104004454e+00
    x[12]     mccormick2[12]  -1
    x[12]     mccormick3[12]  1
    x[13]     OBJ       -34
    x[13]     primal_upper  62
    x[13]     primal_lower  2.1874194204628030e+00
    x[13]     mccormick2[13]  -1
    x[13]     mccormick3[13]  1
    x[14]     OBJ       -19
    x[14]     primal_upper  22
    x[14]     primal_lower  3.7048720492778031e+00
    x[14]     mccormick2[14]  -1
    x[14]     mccormick3[14]  1
    x[15]     OBJ       -84
    x[15]     primal_upper  70
    x[15]     primal_lower  4.34525529815547
    x[15]     mccormick2[15]  -1
    x[15]     mccormick3[15]  1
    x[16]     OBJ       -62
    x[16]     primal_upper  23
    x[16]     primal_lower  1.3172070568795611e+00
    x[16]     mccormick2[16]  -1
    x[16]     mccormick3[16]  1
    x[17]     OBJ       -14
    x[17]     primal_upper  82
    x[17]     primal_lower  3.5926851773841211e+00
    x[17]     mccormick2[17]  -1
    x[17]     mccormick3[17]  1
    x[18]     OBJ       -66
    x[18]     primal_upper  31
    x[18]     primal_lower  4.0508106076609378e+00
    x[18]     mccormick2[18]  -1
    x[18]     mccormick3[18]  1
    x[19]     OBJ       -37
    x[19]     primal_upper  40
    x[19]     primal_lower  2.0837119139767917e+00
    x[19]     mccormick2[19]  -1
    x[19]     mccormick3[19]  1
    x[20]     OBJ       -69
    x[20]     primal_upper  27
    x[20]     primal_lower  1.5688329265215915e+00
    x[20]     mccormick2[20]  -1
    x[20]     mccormick3[20]  1
    x[21]     OBJ       -19
    x[21]     primal_upper  21
    x[21]     primal_lower  2.5573740577553394e+00
    x[21]     mccormick2[21]  -1
    x[21]     mccormick3[21]  1
    x[22]     OBJ       -92
    x[22]     primal_upper  70
    x[22]     primal_lower  3.5296609374105632e+00
    x[22]     mccormick2[22]  -1
    x[22]     mccormick3[22]  1
    x[23]     OBJ       -16
    x[23]     primal_upper  80
    x[23]     primal_lower  3.5300540326035854e+00
    x[23]     mccormick2[23]  -1
    x[23]     mccormick3[23]  1
    x[24]     OBJ       -37
    x[24]     primal_upper  66
    x[24]     primal_lower  2.8823209837432207e+00
    x[24]     mccormick2[24]  -1
    x[24]     mccormick3[24]  1
    x[25]     OBJ       -14
    x[25]     primal_upper  78
    x[25]     primal_lower  3.5509226703165968e+00
    x[25]     mccormick2[25]  -1
    x[25]     mccormick3[25]  1
    x[26]     OBJ       -20
    x[26]     primal_upper  16
    x[26]     primal_lower  4.7940204640114359e-01
    x[26]     mccormick2[26]  -1
    x[26]     mccormick3[26]  1
    x[27]     OBJ       -51
    x[27]     primal_upper  57
    x[27]     primal_lower  1.0752164363374868e+00
    x[27]     mccormick2[27]  -1
    x[27]     mccormick3[27]  1
    x[28]     OBJ       -38
    x[28]     primal_upper  15
    x[28]     primal_lower  1.7358305935348977e+00
    x[28]     mccormick2[28]  -1
    x[28]     mccormick3[28]  1
    x[29]     OBJ       -12
    x[29]     primal_upper  33
    x[29]     primal_lower  3.2335078903432951e-01
    x[29]     mccormick2[29]  -1
    x[29]     mccormick3[29]  1
    x[30]     OBJ       -29
    x[30]     primal_upper  23
    x[30]     primal_lower  1.6031292176008438e-01
    x[30]     mccormick2[30]  -1
    x[30]     mccormick3[30]  1
    x[31]     OBJ       -96
    x[31]     primal_upper  73
    x[31]     primal_lower  1.0252500701252842e+00
    x[31]     mccormick2[31]  -1
    x[31]     mccormick3[31]  1
    x[32]     OBJ       -68
    x[32]     primal_upper  33
    x[32]     primal_lower  1.5079470306396208e+00
    x[32]     mccormick2[32]  -1
    x[32]     mccormick3[32]  1
    x[33]     OBJ       -39
    x[33]     primal_upper  83
    x[33]     primal_lower  4.4430641983648957e+00
    x[33]     mccormick2[33]  -1
    x[33]     mccormick3[33]  1
    x[34]     OBJ       -39
    x[34]     primal_upper  82
    x[34]     primal_lower  1.5321418107195015e+00
    x[34]     mccormick2[34]  -1
    x[34]     mccormick3[34]  1
    x[35]     OBJ       -53
    x[35]     primal_upper  3
    x[35]     primal_lower  2.0802874052856124e-01
    x[35]     mccormick2[35]  -1
    x[35]     mccormick3[35]  1
    x[36]     OBJ       -45
    x[36]     primal_upper  78
    x[36]     primal_lower  6.3400014842195040e-01
    x[36]     mccormick2[36]  -1
    x[36]     mccormick3[36]  1
    x[37]     OBJ       -11
    x[37]     primal_upper  18
    x[37]     primal_lower  3.4858269464591096e+00
    x[37]     mccormick2[37]  -1
    x[37]     mccormick3[37]  1
    x[38]     OBJ       -42
    x[38]     primal_upper  86
    x[38]     primal_lower  3.90983463794837
    x[38]     mccormick2[38]  -1
    x[38]     mccormick3[38]  1
    x[39]     OBJ       -35
    x[39]     primal_upper  60
    x[39]     primal_lower  1.2017824711693456e-01
    x[39]     mccormick2[39]  -1
    x[39]     mccormick3[39]  1
    x[40]     OBJ       -8
    x[40]     primal_upper  29
    x[40]     primal_lower  4.7714146958515563e-01
    x[40]     mccormick2[40]  -1
    x[40]     mccormick3[40]  1
    x[41]     OBJ       -37
    x[41]     primal_upper  91
    x[41]     primal_lower  4.4218307819067694e-02
    x[41]     mccormick2[41]  -1
    x[41]     mccormick3[41]  1
    x[42]     OBJ       -49
    x[42]     primal_upper  64
    x[42]     primal_lower  4.0452232458435722e+00
    x[42]     mccormick2[42]  -1
    x[42]     mccormick3[42]  1
    x[43]     OBJ       -35
    x[43]     primal_upper  19
    x[43]     primal_lower  2.9501275862373180e+00
    x[43]     mccormick2[43]  -1
    x[43]     mccormick3[43]  1
    x[44]     OBJ       -46
    x[44]     primal_upper  89
    x[44]     primal_lower  0.00180971030001853
    x[44]     mccormick2[44]  -1
    x[44]     mccormick3[44]  1
    x[45]     OBJ       -7
    x[45]     primal_upper  36
    x[45]     primal_lower  2.0072032686426322e+00
    x[45]     mccormick2[45]  -1
    x[45]     mccormick3[45]  1
    x[46]     OBJ       -96
    x[46]     primal_upper  71
    x[46]     primal_lower  3.5243989638140718e+00
    x[46]     mccormick2[46]  -1
    x[46]     mccormick3[46]  1
    x[47]     OBJ       -56
    x[47]     primal_upper  7
    x[47]     primal_lower  2.0677901594894497e+00
    x[47]     mccormick2[47]  -1
    x[47]     mccormick3[47]  1
    x[48]     OBJ       -28
    x[48]     primal_upper  41
    x[48]     primal_lower  1.5423726943135008e+00
    x[48]     mccormick2[48]  -1
    x[48]     mccormick3[48]  1
    x[49]     OBJ       -53
    x[49]     primal_upper  62
    x[49]     primal_lower  4.6143140024757773e-01
    x[49]     mccormick2[49]  -1
    x[49]     mccormick3[49]  1
    u[0]      primal_lower  18
    u[0]      mccormick1[0]  -1
    u[0]      mccormick3[0]  1
    u[1]      primal_lower  7
    u[1]      mccormick1[1]  -1
    u[1]      mccormick3[1]  1
    u[2]      primal_lower  57
    u[2]      mccormick1[2]  -1
    u[2]      mccormick3[2]  1
    u[3]      primal_lower  22
    u[3]      mccormick1[3]  -1
    u[3]      mccormick3[3]  1
    u[4]      primal_lower  79
    u[4]      mccormick1[4]  -1
    u[4]      mccormick3[4]  1
    u[5]      primal_lower  32
    u[5]      mccormick1[5]  -1
    u[5]      mccormick3[5]  1
    u[6]      primal_lower  72
    u[6]      mccormick1[6]  -1
    u[6]      mccormick3[6]  1
    u[7]      primal_lower  18
    u[7]      mccormick1[7]  -1
    u[7]      mccormick3[7]  1
    u[8]      primal_lower  8
    u[8]      mccormick1[8]  -1
    u[8]      mccormick3[8]  1
    u[9]      primal_lower  85
    u[9]      mccormick1[9]  -1
    u[9]      mccormick3[9]  1
    u[10]     primal_lower  6
    u[10]     mccormick1[10]  -1
    u[10]     mccormick3[10]  1
    u[11]     primal_lower  86
    u[11]     mccormick1[11]  -1
    u[11]     mccormick3[11]  1
    u[12]     primal_lower  31
    u[12]     mccormick1[12]  -1
    u[12]     mccormick3[12]  1
    u[13]     primal_lower  75
    u[13]     mccormick1[13]  -1
    u[13]     mccormick3[13]  1
    u[14]     primal_lower  91
    u[14]     mccormick1[14]  -1
    u[14]     mccormick3[14]  1
    u[15]     primal_lower  59
    u[15]     mccormick1[15]  -1
    u[15]     mccormick3[15]  1
    u[16]     primal_lower  72
    u[16]     mccormick1[16]  -1
    u[16]     mccormick3[16]  1
    u[17]     primal_lower  91
    u[17]     mccormick1[17]  -1
    u[17]     mccormick3[17]  1
    u[18]     primal_lower  20
    u[18]     mccormick1[18]  -1
    u[18]     mccormick3[18]  1
    u[19]     primal_lower  17
    u[19]     mccormick1[19]  -1
    u[19]     mccormick3[19]  1
    u[20]     primal_lower  56
    u[20]     mccormick1[20]  -1
    u[20]     mccormick3[20]  1
    u[21]     primal_lower  70
    u[21]     mccormick1[21]  -1
    u[21]     mccormick3[21]  1
    u[22]     primal_lower  63
    u[22]     mccormick1[22]  -1
    u[22]     mccormick3[22]  1
    u[23]     primal_lower  41
    u[23]     mccormick1[23]  -1
    u[23]     mccormick3[23]  1
    u[24]     primal_lower  15
    u[24]     mccormick1[24]  -1
    u[24]     mccormick3[24]  1
    u[25]     primal_lower  47
    u[25]     mccormick1[25]  -1
    u[25]     mccormick3[25]  1
    u[26]     primal_lower  29
    u[26]     mccormick1[26]  -1
    u[26]     mccormick3[26]  1
    u[27]     primal_lower  6
    u[27]     mccormick1[27]  -1
    u[27]     mccormick3[27]  1
    u[28]     primal_lower  96
    u[28]     mccormick1[28]  -1
    u[28]     mccormick3[28]  1
    u[29]     primal_lower  30
    u[29]     mccormick1[29]  -1
    u[29]     mccormick3[29]  1
    u[30]     primal_lower  44
    u[30]     mccormick1[30]  -1
    u[30]     mccormick3[30]  1
    u[31]     primal_lower  30
    u[31]     mccormick1[31]  -1
    u[31]     mccormick3[31]  1
    u[32]     primal_lower  82
    u[32]     mccormick1[32]  -1
    u[32]     mccormick3[32]  1
    u[33]     primal_lower  84
    u[33]     mccormick1[33]  -1
    u[33]     mccormick3[33]  1
    u[34]     primal_lower  35
    u[34]     mccormick1[34]  -1
    u[34]     mccormick3[34]  1
    u[35]     primal_lower  72
    u[35]     mccormick1[35]  -1
    u[35]     mccormick3[35]  1
    u[36]     primal_lower  83
    u[36]     mccormick1[36]  -1
    u[36]     mccormick3[36]  1
    u[37]     primal_lower  71
    u[37]     mccormick1[37]  -1
    u[37]     mccormick3[37]  1
    u[38]     primal_lower  59
    u[38]     mccormick1[38]  -1
    u[38]     mccormick3[38]  1
    u[39]     primal_lower  17
    u[39]     mccormick1[39]  -1
    u[39]     mccormick3[39]  1
    u[40]     primal_lower  10
    u[40]     mccormick1[40]  -1
    u[40]     mccormick3[40]  1
    u[41]     primal_lower  48
    u[41]     mccormick1[41]  -1
    u[41]     mccormick3[41]  1
    u[42]     primal_lower  37
    u[42]     mccormick1[42]  -1
    u[42]     mccormick3[42]  1
    u[43]     primal_lower  64
    u[43]     mccormick1[43]  -1
    u[43]     mccormick3[43]  1
    u[44]     primal_lower  66
    u[44]     mccormick1[44]  -1
    u[44]     mccormick3[44]  1
    u[45]     primal_lower  81
    u[45]     mccormick1[45]  -1
    u[45]     mccormick3[45]  1
    u[46]     primal_lower  12
    u[46]     mccormick1[46]  -1
    u[46]     mccormick3[46]  1
    u[47]     primal_lower  84
    u[47]     mccormick1[47]  -1
    u[47]     mccormick3[47]  1
    u[48]     primal_lower  66
    u[48]     mccormick1[48]  -1
    u[48]     mccormick3[48]  1
    u[49]     primal_lower  43
    u[49]     mccormick1[49]  -1
    u[49]     mccormick3[49]  1
    r[0]      primal_upper  3.7
    r[0]      mccormick1[0]  1
    r[0]      mccormick2[0]  1
    r[0]      mccormick3[0]  -1
    r[1]      primal_upper  5.8
    r[1]      mccormick1[1]  1
    r[1]      mccormick2[1]  1
    r[1]      mccormick3[1]  -1
    r[2]      primal_upper  9.6
    r[2]      mccormick1[2]  1
    r[2]      mccormick2[2]  1
    r[2]      mccormick3[2]  -1
    r[3]      primal_upper  1.7
    r[3]      mccormick1[3]  1
    r[3]      mccormick2[3]  1
    r[3]      mccormick3[3]  -1
    r[4]      primal_upper  4.6
    r[4]      mccormick1[4]  1
    r[4]      mccormick2[4]  1
    r[4]      mccormick3[4]  -1
    r[5]      primal_upper  2.3
    r[5]      mccormick1[5]  1
    r[5]      mccormick2[5]  1
    r[5]      mccormick3[5]  -1
    r[6]      primal_upper  9.5
    r[6]      mccormick1[6]  1
    r[6]      mccormick2[6]  1
    r[6]      mccormick3[6]  -1
    r[7]      primal_upper  0.1
    r[7]      mccormick1[7]  1
    r[7]      mccormick2[7]  1
    r[7]      mccormick3[7]  -1
    r[8]      primal_upper  1.1
    r[8]      mccormick1[8]  1
    r[8]      mccormick2[8]  1
    r[8]      mccormick3[8]  -1
    r[9]      primal_upper  9.6
    r[9]      mccormick1[9]  1
    r[9]      mccormick2[9]  1
    r[9]      mccormick3[9]  -1
    r[10]     primal_upper  7.3
    r[10]     mccormick1[10]  1
    r[10]     mccormick2[10]  1
    r[10]     mccormick3[10]  -1
    r[11]     primal_upper  6.9
    r[11]     mccormick1[11]  1
    r[11]     mccormick2[11]  1
    r[11]     mccormick3[11]  -1
    r[12]     primal_upper  4.6
    r[12]     mccormick1[12]  1
    r[12]     mccormick2[12]  1
    r[12]     mccormick3[12]  -1
    r[13]     primal_upper  6.2
    r[13]     mccormick1[13]  1
    r[13]     mccormick2[13]  1
    r[13]     mccormick3[13]  -1
    r[14]     primal_upper  2.2
    r[14]     mccormick1[14]  1
    r[14]     mccormick2[14]  1
    r[14]     mccormick3[14]  -1
    r[15]     primal_upper  7
    r[15]     mccormick1[15]  1
    r[15]     mccormick2[15]  1
    r[15]     mccormick3[15]  -1
    r[16]     primal_upper  2.3
    r[16]     mccormick1[16]  1
    r[16]     mccormick2[16]  1
    r[16]     mccormick3[16]  -1
    r[17]     primal_upper  8.2
    r[17]     mccormick1[17]  1
    r[17]     mccormick2[17]  1
    r[17]     mccormick3[17]  -1
    r[18]     primal_upper  3.1
    r[18]     mccormick1[18]  1
    r[18]     mccormick2[18]  1
    r[18]     mccormick3[18]  -1
    r[19]     primal_upper  4
    r[19]     mccormick1[19]  1
    r[19]     mccormick2[19]  1
    r[19]     mccormick3[19]  -1
    r[20]     primal_upper  2.7
    r[20]     mccormick1[20]  1
    r[20]     mccormick2[20]  1
    r[20]     mccormick3[20]  -1
    r[21]     primal_upper  2.1
    r[21]     mccormick1[21]  1
    r[21]     mccormick2[21]  1
    r[21]     mccormick3[21]  -1
    r[22]     primal_upper  7
    r[22]     mccormick1[22]  1
    r[22]     mccormick2[22]  1
    r[22]     mccormick3[22]  -1
    r[23]     primal_upper  8
    r[23]     mccormick1[23]  1
    r[23]     mccormick2[23]  1
    r[23]     mccormick3[23]  -1
    r[24]     primal_upper  6.6
    r[24]     mccormick1[24]  1
    r[24]     mccormick2[24]  1
    r[24]     mccormick3[24]  -1
    r[25]     primal_upper  7.8
    r[25]     mccormick1[25]  1
    r[25]     mccormick2[25]  1
    r[25]     mccormick3[25]  -1
    r[26]     primal_upper  1.6
    r[26]     mccormick1[26]  1
    r[26]     mccormick2[26]  1
    r[26]     mccormick3[26]  -1
    r[27]     primal_upper  5.7
    r[27]     mccormick1[27]  1
    r[27]     mccormick2[27]  1
    r[27]     mccormick3[27]  -1
    r[28]     primal_upper  1.5
    r[28]     mccormick1[28]  1
    r[28]     mccormick2[28]  1
    r[28]     mccormick3[28]  -1
    r[29]     primal_upper  3.3
    r[29]     mccormick1[29]  1
    r[29]     mccormick2[29]  1
    r[29]     mccormick3[29]  -1
    r[30]     primal_upper  2.3
    r[30]     mccormick1[30]  1
    r[30]     mccormick2[30]  1
    r[30]     mccormick3[30]  -1
    r[31]     primal_upper  7.3
    r[31]     mccormick1[31]  1
    r[31]     mccormick2[31]  1
    r[31]     mccormick3[31]  -1
    r[32]     primal_upper  3.3
    r[32]     mccormick1[32]  1
    r[32]     mccormick2[32]  1
    r[32]     mccormick3[32]  -1
    r[33]     primal_upper  8.3
    r[33]     mccormick1[33]  1
    r[33]     mccormick2[33]  1
    r[33]     mccormick3[33]  -1
    r[34]     primal_upper  8.2
    r[34]     mccormick1[34]  1
    r[34]     mccormick2[34]  1
    r[34]     mccormick3[34]  -1
    r[35]     primal_upper  0.3
    r[35]     mccormick1[35]  1
    r[35]     mccormick2[35]  1
    r[35]     mccormick3[35]  -1
    r[36]     primal_upper  7.8
    r[36]     mccormick1[36]  1
    r[36]     mccormick2[36]  1
    r[36]     mccormick3[36]  -1
    r[37]     primal_upper  1.8
    r[37]     mccormick1[37]  1
    r[37]     mccormick2[37]  1
    r[37]     mccormick3[37]  -1
    r[38]     primal_upper  8.6
    r[38]     mccormick1[38]  1
    r[38]     mccormick2[38]  1
    r[38]     mccormick3[38]  -1
    r[39]     primal_upper  6
    r[39]     mccormick1[39]  1
    r[39]     mccormick2[39]  1
    r[39]     mccormick3[39]  -1
    r[40]     primal_upper  2.9
    r[40]     mccormick1[40]  1
    r[40]     mccormick2[40]  1
    r[40]     mccormick3[40]  -1
    r[41]     primal_upper  9.1
    r[41]     mccormick1[41]  1
    r[41]     mccormick2[41]  1
    r[41]     mccormick3[41]  -1
    r[42]     primal_upper  6.4
    r[42]     mccormick1[42]  1
    r[42]     mccormick2[42]  1
    r[42]     mccormick3[42]  -1
    r[43]     primal_upper  1.9
    r[43]     mccormick1[43]  1
    r[43]     mccormick2[43]  1
    r[43]     mccormick3[43]  -1
    r[44]     primal_upper  8.9
    r[44]     mccormick1[44]  1
    r[44]     mccormick2[44]  1
    r[44]     mccormick3[44]  -1
    r[45]     primal_upper  3.6
    r[45]     mccormick1[45]  1
    r[45]     mccormick2[45]  1
    r[45]     mccormick3[45]  -1
    r[46]     primal_upper  7.1
    r[46]     mccormick1[46]  1
    r[46]     mccormick2[46]  1
    r[46]     mccormick3[46]  -1
    r[47]     primal_upper  0.7
    r[47]     mccormick1[47]  1
    r[47]     mccormick2[47]  1
    r[47]     mccormick3[47]  -1
    r[48]     primal_upper  4.1
    r[48]     mccormick1[48]  1
    r[48]     mccormick2[48]  1
    r[48]     mccormick3[48]  -1
    r[49]     primal_upper  6.2
    r[49]     mccormick1[49]  1
    r[49]     mccormick2[49]  1
    r[49]     mccormick3[49]  -1
    MARKER    'MARKER'                 'INTEND'
RHS
    RHS1      primal_upper  238
    RHS1      primal_lower  47203
    RHS1      mccormick3[0]  1
    RHS1      mccormick3[1]  1
    RHS1      mccormick3[2]  1
    RHS1      mccormick3[3]  1
    RHS1      mccormick3[4]  1
    RHS1      mccormick3[5]  1
    RHS1      mccormick3[6]  1
    RHS1      mccormick3[7]  1
    RHS1      mccormick3[8]  1
    RHS1      mccormick3[9]  1
    RHS1      mccormick3[10]  1
    RHS1      mccormick3[11]  1
    RHS1      mccormick3[12]  1
    RHS1      mccormick3[13]  1
    RHS1      mccormick3[14]  1
    RHS1      mccormick3[15]  1
    RHS1      mccormick3[16]  1
    RHS1      mccormick3[17]  1
    RHS1      mccormick3[18]  1
    RHS1      mccormick3[19]  1
    RHS1      mccormick3[20]  1
    RHS1      mccormick3[21]  1
    RHS1      mccormick3[22]  1
    RHS1      mccormick3[23]  1
    RHS1      mccormick3[24]  1
    RHS1      mccormick3[25]  1
    RHS1      mccormick3[26]  1
    RHS1      mccormick3[27]  1
    RHS1      mccormick3[28]  1
    RHS1      mccormick3[29]  1
    RHS1      mccormick3[30]  1
    RHS1      mccormick3[31]  1
    RHS1      mccormick3[32]  1
    RHS1      mccormick3[33]  1
    RHS1      mccormick3[34]  1
    RHS1      mccormick3[35]  1
    RHS1      mccormick3[36]  1
    RHS1      mccormick3[37]  1
    RHS1      mccormick3[38]  1
    RHS1      mccormick3[39]  1
    RHS1      mccormick3[40]  1
    RHS1      mccormick3[41]  1
    RHS1      mccormick3[42]  1
    RHS1      mccormick3[43]  1
    RHS1      mccormick3[44]  1
    RHS1      mccormick3[45]  1
    RHS1      mccormick3[46]  1
    RHS1      mccormick3[47]  1
    RHS1      mccormick3[48]  1
    RHS1      mccormick3[49]  1
BOUNDS
 BV BND1      x[0]    
 BV BND1      x[1]    
 BV BND1      x[2]    
 BV BND1      x[3]    
 BV BND1      x[4]    
 BV BND1      x[5]    
 BV BND1      x[6]    
 BV BND1      x[7]    
 BV BND1      x[8]    
 BV BND1      x[9]    
 BV BND1      x[10]   
 BV BND1      x[11]   
 BV BND1      x[12]   
 BV BND1      x[13]   
 BV BND1      x[14]   
 BV BND1      x[15]   
 BV BND1      x[16]   
 BV BND1      x[17]   
 BV BND1      x[18]   
 BV BND1      x[19]   
 BV BND1      x[20]   
 BV BND1      x[21]   
 BV BND1      x[22]   
 BV BND1      x[23]   
 BV BND1      x[24]   
 BV BND1      x[25]   
 BV BND1      x[26]   
 BV BND1      x[27]   
 BV BND1      x[28]   
 BV BND1      x[29]   
 BV BND1      x[30]   
 BV BND1      x[31]   
 BV BND1      x[32]   
 BV BND1      x[33]   
 BV BND1      x[34]   
 BV BND1      x[35]   
 BV BND1      x[36]   
 BV BND1      x[37]   
 BV BND1      x[38]   
 BV BND1      x[39]   
 BV BND1      x[40]   
 BV BND1      x[41]   
 BV BND1      x[42]   
 BV BND1      x[43]   
 BV BND1      x[44]   
 BV BND1      x[45]   
 BV BND1      x[46]   
 BV BND1      x[47]   
 BV BND1      x[48]   
 BV BND1      x[49]   
 BV BND1      u[0]    
 BV BND1      u[1]    
 BV BND1      u[2]    
 BV BND1      u[3]    
 BV BND1      u[4]    
 BV BND1      u[5]    
 BV BND1      u[6]    
 BV BND1      u[7]    
 BV BND1      u[8]    
 BV BND1      u[9]    
 BV BND1      u[10]   
 BV BND1      u[11]   
 BV BND1      u[12]   
 BV BND1      u[13]   
 BV BND1      u[14]   
 BV BND1      u[15]   
 BV BND1      u[16]   
 BV BND1      u[17]   
 BV BND1      u[18]   
 BV BND1      u[19]   
 BV BND1      u[20]   
 BV BND1      u[21]   
 BV BND1      u[22]   
 BV BND1      u[23]   
 BV BND1      u[24]   
 BV BND1      u[25]   
 BV BND1      u[26]   
 BV BND1      u[27]   
 BV BND1      u[28]   
 BV BND1      u[29]   
 BV BND1      u[30]   
 BV BND1      u[31]   
 BV BND1      u[32]   
 BV BND1      u[33]   
 BV BND1      u[34]   
 BV BND1      u[35]   
 BV BND1      u[36]   
 BV BND1      u[37]   
 BV BND1      u[38]   
 BV BND1      u[39]   
 BV BND1      u[40]   
 BV BND1      u[41]   
 BV BND1      u[42]   
 BV BND1      u[43]   
 BV BND1      u[44]   
 BV BND1      u[45]   
 BV BND1      u[46]   
 BV BND1      u[47]   
 BV BND1      u[48]   
 BV BND1      u[49]   
 BV BND1      r[0]    
 BV BND1      r[1]    
 BV BND1      r[2]    
 BV BND1      r[3]    
 BV BND1      r[4]    
 BV BND1      r[5]    
 BV BND1      r[6]    
 BV BND1      r[7]    
 BV BND1      r[8]    
 BV BND1      r[9]    
 BV BND1      r[10]   
 BV BND1      r[11]   
 BV BND1      r[12]   
 BV BND1      r[13]   
 BV BND1      r[14]   
 BV BND1      r[15]   
 BV BND1      r[16]   
 BV BND1      r[17]   
 BV BND1      r[18]   
 BV BND1      r[19]   
 BV BND1      r[20]   
 BV BND1      r[21]   
 BV BND1      r[22]   
 BV BND1      r[23]   
 BV BND1      r[24]   
 BV BND1      r[25]   
 BV BND1      r[26]   
 BV BND1      r[27]   
 BV BND1      r[28]   
 BV BND1      r[29]   
 BV BND1      r[30]   
 BV BND1      r[31]   
 BV BND1      r[32]   
 BV BND1      r[33]   
 BV BND1      r[34]   
 BV BND1      r[35]   
 BV BND1      r[36]   
 BV BND1      r[37]   
 BV BND1      r[38]   
 BV BND1      r[39]   
 BV BND1      r[40]   
 BV BND1      r[41]   
 BV BND1      r[42]   
 BV BND1      r[43]   
 BV BND1      r[44]   
 BV BND1      r[45]   
 BV BND1      r[46]   
 BV BND1      r[47]   
 BV BND1      r[48]   
 BV BND1      r[49]   
ENDATA
